     Program PHONON v.6.3 starts on 18Mar2019 at  8:58:27

     K-points division:     npool     =      32
     R & G space division:  proc/nbgrp/npool/nimage =      16

     Reading data from directory:
     ./sto.save/

     IMPORTANT: XC functional enforced from input :
     Exchange-correlation      = PZ ( 1  1  0  0 0 0)
     Any further DFT definition will be discarded
     Please, verify this is what you really want

        1 /   1 q-points for this run, from  1 to  1:
       N       xq(1)         xq(2)         xq(3)
       1   0.000000000   0.000000000   0.000000000

     Calculation of q =    0.0000000   0.0000000   0.0000000

     Modes are read from file

     phonons of Phosphorene

     bravais-lattice index     =            0
     lattice parameter (alat)  =      14.4937  a.u.
     unit-cell volume          =    3074.8188 (a.u.)^3
     number of atoms/cell      =           40
     number of atomic types    =            3
     kinetic-energy cut-off    =      50.0000  Ry
     charge density cut-off    =     200.0000  Ry
     convergence threshold     =      1.0E-16
     beta                      =       0.7000
     number of iterations used =            4
     Exchange-correlation      = PZ ( 1  1  0  0 0 0)

     celldm(1)=   28.98741  celldm(2)=***********  celldm(3)=    0.50495
     celldm(4)=    0.00000  celldm(5)=   -0.00004  celldm(6)=    0.00000

     crystal axes: (cart. coord. in units of alat)
               a(1) = (  1.0000 -0.0000 -0.0000 )
               a(2) = ( -0.0000  1.0000 -0.0000 )
               a(3) = ( -0.0000 -0.0000  1.0099 )

     reciprocal axes: (cart. coord. in units 2 pi/alat)
               b(1) = (  1.0000  0.0000  0.0000 )
               b(2) = (  0.0000  1.0000  0.0000 )
               b(3) = (  0.0000  0.0000  0.9902 )

     Atoms inside the unit cell:

     Cartesian axes

     site n.  atom      mass           positions (alat units)
        1     Sr  87.6200   tau(    1) = (    0.50399    0.00396    0.00410  )
        2     Sr  87.6200   tau(    2) = (    0.00394    0.50397    0.50905  )
        3     Sr  87.6200   tau(    3) = (    0.00399    0.50396    0.00410  )
        4     Sr  87.6200   tau(    4) = (    0.50394    0.00397    0.50905  )
        5     Sr  87.6200   tau(    5) = (    0.50396    0.50399    0.00409  )
        6     Sr  87.6200   tau(    6) = (    0.00397    0.00394    0.50907  )
        7     Sr  87.6200   tau(    7) = (    0.00396    0.00399    0.00411  )
        8     Sr  87.6200   tau(    8) = (    0.50397    0.50394    0.50904  )
        9     Ti  47.8600   tau(    9) = (    0.75391    0.75393    0.76156  )
       10     Ti  47.8600   tau(   10) = (    0.75395    0.75393    0.25661  )
       11     Ti  47.8600   tau(   11) = (    0.75393    0.25395    0.25662  )
       12     Ti  47.8600   tau(   12) = (    0.75393    0.25391    0.76157  )
       13     Ti  47.8600   tau(   13) = (    0.25391    0.25393    0.76159  )
       14     Ti  47.8600   tau(   14) = (    0.25395    0.25393    0.25664  )
       15     Ti  47.8600   tau(   15) = (    0.25393    0.75395    0.25662  )
       16     Ti  47.8600   tau(   16) = (    0.25393    0.75391    0.76158  )
       17     O   15.9900   tau(   17) = (    0.72348    0.00401    0.25661  )
       18     O   15.9900   tau(   18) = (    0.78457    0.50401    0.25622  )
       19     O   15.9900   tau(   19) = (    0.50401    0.72348    0.25660  )
       20     O   15.9900   tau(   20) = (    0.00401    0.78457    0.25623  )
       21     O   15.9900   tau(   21) = (    0.50399    0.78455    0.76117  )
       22     O   15.9900   tau(   22) = (    0.00399    0.72346    0.76156  )
       23     O   15.9900   tau(   23) = (    0.78455    0.00399    0.76118  )
       24     O   15.9900   tau(   24) = (    0.72346    0.50399    0.76155  )
       25     O   15.9900   tau(   25) = (    0.50399    0.22346    0.76156  )
       26     O   15.9900   tau(   26) = (    0.00399    0.28455    0.76120  )
       27     O   15.9900   tau(   27) = (    0.50401    0.28457    0.25623  )
       28     O   15.9900   tau(   28) = (    0.00401    0.22348    0.25662  )
       29     O   15.9900   tau(   29) = (    0.22348    0.50401    0.25661  )
       30     O   15.9900   tau(   30) = (    0.28457    0.00401    0.25624  )
       31     O   15.9900   tau(   31) = (    0.28455    0.50399    0.76118  )
       32     O   15.9900   tau(   32) = (    0.22346    0.00399    0.76158  )
       33     O   15.9900   tau(   33) = (    0.75382    0.75423    0.00394  )
       34     O   15.9900   tau(   34) = (    0.75421    0.75380    0.50890  )
       35     O   15.9900   tau(   35) = (    0.75381    0.25421    0.50891  )
       36     O   15.9900   tau(   36) = (    0.75423    0.25382    0.00396  )
       37     O   15.9900   tau(   37) = (    0.25382    0.25423    0.00397  )
       38     O   15.9900   tau(   38) = (    0.25421    0.25380    0.50892  )
       39     O   15.9900   tau(   39) = (    0.25380    0.75421    0.50891  )
       40     O   15.9900   tau(   40) = (    0.25423    0.75382    0.00396  )

     Computing dynamical matrix for
                    q = (   0.0000000   0.0000000   0.0000000 )

      2 Sym.Ops. (with q -> -q+G )

     G cutoff = 1064.2143  (   9178 G-vectors)     FFT grid: ( 72, 72, 72)
     number of k points=    32

     PseudoPot. # 1 for Sr read from file:
     ./norm/sr_srl_lda.upf
     MD5 check sum: d69c13f9a890097932991d246fec5798
     Pseudo is Norm-conserving, Zval = 10.0
     Generated by new atomic code, or converted to UPF format
     Using radial grid of 1170 points,  3 beta functions with:
                l(1) =   0
                l(2) =   1
                l(3) =   2

     PseudoPot. # 2 for Ti read from file:
     ./norm/ti_srl_lda.upf
     MD5 check sum: 490284f24a9218b6ef7498554e542f4d
     Pseudo is Norm-conserving, Zval = 12.0
     Generated by new atomic code, or converted to UPF format
     Using radial grid of 1156 points,  3 beta functions with:
                l(1) =   0
                l(2) =   1
                l(3) =   2

     PseudoPot. # 3 for O  read from file:
     ./norm/o_srl_lda.upf
     MD5 check sum: ae6ad2a925f69b21c27fc7471525ac1c
     Pseudo is Norm-conserving, Zval =  6.0
     Generated by new atomic code, or converted to UPF format
     Using radial grid of 1130 points,  1 beta functions with:
                l(1) =   1

     Mode symmetry, C_1 (1)     point group:

     Electric field:
     Dielectric constant
     Born effective charges in two ways
     Raman tensor

     Atomic displacements:
     There are 120 irreducible representations

     Representation     1      1 modes -A  Done

[...]

     Representation    37      1 modes -A  Done

     Representation    38      1 modes -A  To be done

[...]

     Representation   120      1 modes -A  To be done

          Dielectric constant in cartesian axis

          (       6.354663754       0.000010935      -0.000264296 )
          (       0.000010935       6.354566587      -0.000251821 )
          (      -0.000264296      -0.000251821       6.402733268 )

          Effective charges (d Force / dE) in cartesian axis

           atom      1   Sr
      Ex  (        2.49787        0.00000       -0.00089 )
      Ey  (       -0.00001        2.49733        0.00035 )
      Ez  (       -0.00032       -0.00022        2.59635 )
           atom      2   Sr
      Ex  (        2.49733       -0.00001        0.00036 )
      Ey  (        0.00000        2.49787       -0.00088 )
      Ez  (       -0.00023       -0.00033        2.59635 )
           atom      3   Sr
      Ex  (        2.49787       -0.00000       -0.00089 )
      Ey  (       -0.00001        2.49733        0.00035 )
      Ez  (       -0.00033       -0.00023        2.59635 )
           atom      4   Sr
      Ex  (        2.49733       -0.00001        0.00036 )
      Ey  (       -0.00000        2.49787       -0.00088 )
      Ez  (       -0.00022       -0.00032        2.59635 )
           atom      5   Sr
      Ex  (        2.49733       -0.00001        0.00036 )
      Ey  (        0.00000        2.49787       -0.00088 )
      Ez  (       -0.00022       -0.00033        2.59635 )
           atom      6   Sr
      Ex  (        2.49787        0.00000       -0.00089 )
      Ey  (       -0.00001        2.49733        0.00035 )
      Ez  (       -0.00033       -0.00022        2.59635 )
           atom      7   Sr
      Ex  (        2.49733       -0.00001        0.00036 )
      Ey  (       -0.00000        2.49787       -0.00088 )
      Ez  (       -0.00023       -0.00032        2.59635 )
           atom      8   Sr
      Ex  (        2.49787       -0.00000       -0.00089 )
      Ey  (       -0.00001        2.49733        0.00035 )
      Ez  (       -0.00032       -0.00023        2.59635 )
           atom      9   Ti
      Ex  (        7.31146       -0.41245        0.00184 )
      Ey  (        0.41242        7.31152       -0.00280 )
      Ez  (       -0.00338        0.00245        7.31593 )
           atom     10   Ti
      Ex  (        7.31149        0.41242       -0.00280 )
      Ey  (       -0.41245        7.31149        0.00184 )
      Ez  (        0.00246       -0.00338        7.31593 )
           atom     11   Ti
      Ex  (        7.31148       -0.41245        0.00183 )
      Ey  (        0.41242        7.31152       -0.00280 )
      Ez  (       -0.00338        0.00245        7.31594 )
           atom     12   Ti
      Ex  (        7.31149        0.41242       -0.00280 )
      Ey  (       -0.41245        7.31149        0.00184 )
      Ez  (        0.00245       -0.00338        7.31594 )
           atom     13   Ti
      Ex  (        7.31147       -0.41245        0.00183 )
      Ey  (        0.41242        7.31150       -0.00280 )
      Ez  (       -0.00338        0.00245        7.31593 )
           atom     14   Ti
      Ex  (        7.31151        0.41242       -0.00280 )
      Ey  (       -0.41245        7.31148        0.00183 )
      Ez  (        0.00245       -0.00338        7.31593 )
           atom     15   Ti
      Ex  (        7.31147       -0.41245        0.00184 )
      Ey  (        0.41242        7.31151       -0.00280 )
      Ez  (       -0.00338        0.00245        7.31590 )
           atom     16   Ti
      Ex  (        7.31149        0.41242       -0.00280 )
      Ey  (       -0.41245        7.31148        0.00183 )
      Ez  (        0.00246       -0.00338        7.31591 )
           atom     17   O
      Ex  (       -2.03208       -0.00067       -0.00009 )
      Ey  (       -0.00093       -5.74623        0.00027 )
      Ez  (        0.00007       -0.00019       -2.08693 )
           atom     18   O
      Ex  (       -2.03289        0.00070        0.00139 )
      Ey  (        0.00095       -5.74469        0.00023 )
      Ez  (        0.00120       -0.00021       -2.08723 )
           atom     19   O
      Ex  (       -5.74618       -0.00094        0.00026 )
      Ey  (       -0.00069       -2.03208       -0.00009 )
      Ez  (       -0.00019        0.00007       -2.08691 )
           atom     20   O
      Ex  (       -5.74466        0.00096        0.00024 )
      Ey  (        0.00071       -2.03287        0.00139 )
[...]
      Py  (       -0.00093       -5.74629        0.00027 )
      Pz  (        0.00007       -0.00019       -2.08694 )
           atom     18   O
      Px  (       -2.03293        0.00070        0.00139 )
      Py  (        0.00095       -5.74475        0.00024 )
      Pz  (        0.00120       -0.00021       -2.08724 )
           atom     19   O
      Px  (       -5.74624       -0.00094        0.00026 )
      Py  (       -0.00069       -2.03212       -0.00009 )
      Pz  (       -0.00019        0.00007       -2.08692 )
           atom     20   O
      Px  (       -5.74472        0.00096        0.00024 )
      Py  (        0.00071       -2.03292        0.00139 )
      Pz  (       -0.00021        0.00120       -2.08722 )
           atom     21   O
      Px  (       -5.74471        0.00097        0.00024 )
      Py  (        0.00071       -2.03292        0.00139 )
      Pz  (       -0.00020        0.00120       -2.08723 )
           atom     22   O
      Px  (       -5.74623       -0.00094        0.00026 )
      Py  (       -0.00069       -2.03212       -0.00009 )
      Pz  (       -0.00019        0.00007       -2.08693 )
           atom     23   O
      Px  (       -2.03293        0.00070        0.00139 )
      Py  (        0.00095       -5.74475        0.00025 )
      Pz  (        0.00120       -0.00020       -2.08725 )
           atom     24   O
      Px  (       -2.03213       -0.00068       -0.00009 )
      Py  (       -0.00093       -5.74629        0.00026 )
      Pz  (        0.00007       -0.00020       -2.08694 )
           atom     25   O
      Px  (       -5.74625       -0.00094        0.00026 )
      Py  (       -0.00069       -2.03212       -0.00009 )
      Pz  (       -0.00019        0.00007       -2.08693 )
           atom     26   O
      Px  (       -5.74473        0.00097        0.00024 )
      Py  (        0.00071       -2.03292        0.00138 )
      Pz  (       -0.00021        0.00120       -2.08723 )
           atom     27   O
      Px  (       -5.74474        0.00097        0.00024 )
      Py  (        0.00071       -2.03292        0.00139 )
      Pz  (       -0.00020        0.00120       -2.08723 )
           atom     28   O
      Px  (       -5.74626       -0.00094        0.00026 )
      Py  (       -0.00069       -2.03212       -0.00009 )
      Pz  (       -0.00020        0.00007       -2.08693 )
           atom     29   O
      Px  (       -2.03213       -0.00068       -0.00009 )
      Py  (       -0.00093       -5.74628        0.00026 )
      Pz  (        0.00007       -0.00020       -2.08693 )
           atom     30   O
      Px  (       -2.03293        0.00070        0.00139 )
      Py  (        0.00095       -5.74474        0.00024 )
      Pz  (        0.00120       -0.00020       -2.08724 )
           atom     31   O
      Px  (       -2.03293        0.00070        0.00139 )
      Py  (        0.00095       -5.74472        0.00024 )
      Pz  (        0.00120       -0.00021       -2.08724 )
           atom     32   O
      Px  (       -2.03212       -0.00067       -0.00009 )
      Py  (       -0.00093       -5.74626        0.00026 )
      Pz  (        0.00007       -0.00019       -2.08693 )
           atom     33   O
      Px  (       -2.03252        0.00019       -0.00018 )
      Py  (       -0.00017       -2.03255       -0.00012 )
      Pz  (        0.00016        0.00045       -5.74002 )
           atom     34   O
      Px  (       -2.03254       -0.00017       -0.00012 )
      Py  (        0.00018       -2.03253       -0.00018 )
      Pz  (        0.00045        0.00016       -5.74001 )
           atom     35   O
      Px  (       -2.03253        0.00019       -0.00018 )
      Py  (       -0.00017       -2.03254       -0.00012 )
      Pz  (        0.00016        0.00046       -5.74003 )
           atom     36   O
      Px  (       -2.03254       -0.00017       -0.00012 )
      Py  (        0.00019       -2.03253       -0.00018 )
      Pz  (        0.00045        0.00016       -5.74003 )
           atom     37   O
      Px  (       -2.03252        0.00018       -0.00018 )
      Py  (       -0.00018       -2.03254       -0.00012 )
      Pz  (        0.00016        0.00046       -5.74001 )
           atom     38   O
      Px  (       -2.03254       -0.00017       -0.00012 )
      Py  (        0.00019       -2.03252       -0.00018 )
      Pz  (        0.00045        0.00016       -5.74001 )
           atom     39   O
      Px  (       -2.03251        0.00019       -0.00017 )
      Py  (       -0.00017       -2.03253       -0.00012 )
      Pz  (        0.00016        0.00045       -5.73996 )
           atom     40   O
      Px  (       -2.03252       -0.00017       -0.00012 )
      Py  (        0.00019       -2.03251       -0.00017 )
      Pz  (        0.00045        0.00016       -5.73996 )

     Diagonalizing the dynamical matrix

     q = (    0.000000000   0.000000000   0.000000000 )

     freq (    1) =      -0.377627 [THz] =     -12.596277 [cm-1]
     freq (    2) =      -0.374531 [THz] =     -12.493021 [cm-1]
     freq (    3) =      -0.350386 [THz] =     -11.687632 [cm-1]
     freq (    4) =       1.221604 [THz] =      40.748330 [cm-1]
     freq (    5) =       1.236150 [THz] =      41.233515 [cm-1]
     freq (    6) =       1.684940 [THz] =      56.203537 [cm-1]
     freq (    7) =       1.687430 [THz] =      56.286605 [cm-1]
     freq (    8) =       2.700089 [THz] =      90.065274 [cm-1]
     freq (    9) =       2.707373 [THz] =      90.308253 [cm-1]
     freq (   10) =       2.998961 [THz] =     100.034584 [cm-1]
     freq (   11) =       2.999267 [THz] =     100.044778 [cm-1]
     freq (   12) =       3.058030 [THz] =     102.004892 [cm-1]
     freq (   13) =       3.075148 [THz] =     102.575883 [cm-1]
     freq (   14) =       3.075823 [THz] =     102.598423 [cm-1]
     freq (   15) =       3.298058 [THz] =     110.011364 [cm-1]
     freq (   16) =       3.349730 [THz] =     111.734961 [cm-1]
     freq (   17) =       3.351012 [THz] =     111.777719 [cm-1]
     freq (   18) =       3.408433 [THz] =     113.693092 [cm-1]
     freq (   19) =       3.485156 [THz] =     116.252295 [cm-1]
     freq (   20) =       3.485166 [THz] =     116.252620 [cm-1]
     freq (   21) =       3.686582 [THz] =     122.971136 [cm-1]
     freq (   22) =       3.686587 [THz] =     122.971294 [cm-1]
     freq (   23) =       3.721884 [THz] =     124.148699 [cm-1]
     freq (   24) =       3.722074 [THz] =     124.155009 [cm-1]
     freq (   25) =       3.884548 [THz] =     129.574587 [cm-1]
     freq (   26) =       3.924284 [THz] =     130.900039 [cm-1]
     freq (   27) =       3.924675 [THz] =     130.913050 [cm-1]
     freq (   28) =       4.075617 [THz] =     135.947957 [cm-1]
     freq (   29) =       4.076703 [THz] =     135.984179 [cm-1]
     freq (   30) =       4.122262 [THz] =     137.503853 [cm-1]
     freq (   31) =       4.122484 [THz] =     137.511250 [cm-1]
     freq (   32) =       4.123492 [THz] =     137.544891 [cm-1]
     freq (   33) =       4.126950 [THz] =     137.660234 [cm-1]
     freq (   34) =       4.364798 [THz] =     145.593976 [cm-1]
     freq (   35) =       4.365077 [THz] =     145.603303 [cm-1]
     freq (   36) =       4.402817 [THz] =     146.862153 [cm-1]
     freq (   37) =       4.403235 [THz] =     146.876098 [cm-1]
     freq (   38) =       4.613407 [THz] =     153.886694 [cm-1]
     freq (   39) =       4.708443 [THz] =     157.056749 [cm-1]
     freq (   40) =       5.118301 [THz] =     170.728128 [cm-1]
     freq (   41) =       5.118323 [THz] =     170.728871 [cm-1]
     freq (   42) =       5.257418 [THz] =     175.368589 [cm-1]
     freq (   43) =       5.259014 [THz] =     175.421839 [cm-1]
     freq (   44) =       5.513261 [THz] =     183.902596 [cm-1]
     freq (   45) =       5.513642 [THz] =     183.915316 [cm-1]
     freq (   46) =       5.532317 [THz] =     184.538240 [cm-1]
     freq (   47) =       5.802871 [THz] =     193.562941 [cm-1]
     freq (   48) =       5.804771 [THz] =     193.626329 [cm-1]
     freq (   49) =       6.124956 [THz] =     204.306535 [cm-1]
     freq (   50) =       6.124972 [THz] =     204.307089 [cm-1]
     freq (   51) =       6.126338 [THz] =     204.352626 [cm-1]
     freq (   52) =       7.388123 [THz] =     246.441259 [cm-1]
     freq (   53) =       7.390889 [THz] =     246.533528 [cm-1]
     freq (   54) =       7.804822 [THz] =     260.340825 [cm-1]
     freq (   55) =       7.805644 [THz] =     260.368247 [cm-1]
     freq (   56) =       7.888322 [THz] =     263.126103 [cm-1]
     freq (   57) =       8.081108 [THz] =     269.556761 [cm-1]
     freq (   58) =       8.084203 [THz] =     269.659982 [cm-1]
     freq (   59) =       8.430493 [THz] =     281.210988 [cm-1]
     freq (   60) =       8.431606 [THz] =     281.248091 [cm-1]
[...]
     freq (  106) =      16.164143 [THz] =     539.177786 [cm-1]
     freq (  107) =      16.239068 [THz] =     541.677005 [cm-1]
     freq (  108) =      16.298146 [THz] =     543.647635 [cm-1]
     freq (  109) =      16.298230 [THz] =     543.650451 [cm-1]
     freq (  110) =      16.340534 [THz] =     545.061543 [cm-1]
     freq (  111) =      16.379813 [THz] =     546.371760 [cm-1]
     freq (  112) =      16.380596 [THz] =     546.397859 [cm-1]
     freq (  113) =      16.548191 [THz] =     551.988223 [cm-1]
     freq (  114) =      23.061918 [THz] =     769.262766 [cm-1]
     freq (  115) =      23.062398 [THz] =     769.278782 [cm-1]
     freq (  116) =      23.068641 [THz] =     769.487039 [cm-1]
     freq (  117) =      24.475351 [THz] =     816.409824 [cm-1]
     freq (  118) =      24.519720 [THz] =     817.889814 [cm-1]
     freq (  119) =      24.519965 [THz] =     817.897981 [cm-1]
     freq (  120) =      25.512509 [THz] =     851.005685 [cm-1]

     Mode symmetry, C_1 (1)     point group:

     freq (  1 -  1) =        -12.6  [cm-1]   --> A               I+R
     freq (  2 -  2) =        -12.5  [cm-1]   --> A               I+R
     freq (  3 -  3) =        -11.7  [cm-1]   --> A               I+R
     freq (  4 -  4) =         40.7  [cm-1]   --> A               I+R
     freq (  5 -  5) =         41.2  [cm-1]   --> A               I+R
     freq (  6 -  6) =         56.2  [cm-1]   --> A               I+R
     freq (  7 -  7) =         56.3  [cm-1]   --> A               I+R
     freq (  8 -  8) =         90.1  [cm-1]   --> A               I+R
     freq (  9 -  9) =         90.3  [cm-1]   --> A               I+R
     freq ( 10 - 10) =        100.0  [cm-1]   --> A               I+R
     freq ( 11 - 11) =        100.0  [cm-1]   --> A               I+R
     freq ( 12 - 12) =        102.0  [cm-1]   --> A               I+R
     freq ( 13 - 13) =        102.6  [cm-1]   --> A               I+R
     freq ( 14 - 14) =        102.6  [cm-1]   --> A               I+R
     freq ( 15 - 15) =        110.0  [cm-1]   --> A               I+R
     freq ( 16 - 16) =        111.7  [cm-1]   --> A               I+R
     freq ( 17 - 17) =        111.8  [cm-1]   --> A               I+R
     freq ( 18 - 18) =        113.7  [cm-1]   --> A               I+R
     freq ( 19 - 19) =        116.3  [cm-1]   --> A               I+R
     freq ( 20 - 20) =        116.3  [cm-1]   --> A               I+R
     freq ( 21 - 21) =        123.0  [cm-1]   --> A               I+R
     freq ( 22 - 22) =        123.0  [cm-1]   --> A               I+R
     freq ( 23 - 23) =        124.1  [cm-1]   --> A               I+R
     freq ( 24 - 24) =        124.2  [cm-1]   --> A               I+R
     freq ( 25 - 25) =        129.6  [cm-1]   --> A               I+R
     freq ( 26 - 26) =        130.9  [cm-1]   --> A               I+R
     freq ( 27 - 27) =        130.9  [cm-1]   --> A               I+R
     freq ( 28 - 28) =        135.9  [cm-1]   --> A               I+R
     freq ( 29 - 29) =        136.0  [cm-1]   --> A               I+R
     freq ( 30 - 30) =        137.5  [cm-1]   --> A               I+R
     freq ( 31 - 31) =        137.5  [cm-1]   --> A               I+R
     freq ( 32 - 32) =        137.5  [cm-1]   --> A               I+R
     freq ( 33 - 33) =        137.7  [cm-1]   --> A               I+R
     freq ( 34 - 34) =        145.6  [cm-1]   --> A               I+R
     freq ( 35 - 35) =        145.6  [cm-1]   --> A               I+R
     freq ( 36 - 36) =        146.9  [cm-1]   --> A               I+R
     freq ( 37 - 37) =        146.9  [cm-1]   --> A               I+R
     freq ( 38 - 38) =        153.9  [cm-1]   --> A               I+R
     freq ( 39 - 39) =        157.1  [cm-1]   --> A               I+R
     freq ( 40 - 40) =        170.7  [cm-1]   --> A               I+R
     freq ( 41 - 41) =        170.7  [cm-1]   --> A               I+R
     freq ( 42 - 42) =        175.4  [cm-1]   --> A               I+R
     freq ( 43 - 43) =        175.4  [cm-1]   --> A               I+R
     freq ( 44 - 44) =        183.9  [cm-1]   --> A               I+R
     freq ( 45 - 45) =        183.9  [cm-1]   --> A               I+R
     freq ( 46 - 46) =        184.5  [cm-1]   --> A               I+R
     freq ( 47 - 47) =        193.6  [cm-1]   --> A               I+R
     freq ( 48 - 48) =        193.6  [cm-1]   --> A               I+R
     freq ( 49 - 49) =        204.3  [cm-1]   --> A               I+R
     freq ( 50 - 50) =        204.3  [cm-1]   --> A               I+R
     freq ( 51 - 51) =        204.4  [cm-1]   --> A               I+R
     freq ( 52 - 52) =        246.4  [cm-1]   --> A               I+R
     freq ( 53 - 53) =        246.5  [cm-1]   --> A               I+R
     freq ( 54 - 54) =        260.3  [cm-1]   --> A               I+R
     freq ( 55 - 55) =        260.4  [cm-1]   --> A               I+R
     freq ( 56 - 56) =        263.1  [cm-1]   --> A               I+R
     freq ( 57 - 57) =        269.6  [cm-1]   --> A               I+R
     freq ( 58 - 58) =        269.7  [cm-1]   --> A               I+R
     freq ( 59 - 59) =        281.2  [cm-1]   --> A               I+R
     freq ( 60 - 60) =        281.2  [cm-1]   --> A               I+R
[...]
     freq ( 85 - 85) =        465.8  [cm-1]   --> A               I+R
     freq ( 86 - 86) =        468.5  [cm-1]   --> A               I+R
     freq ( 87 - 87) =        468.5  [cm-1]   --> A               I+R
     freq ( 88 - 88) =        477.8  [cm-1]   --> A               I+R
     freq ( 89 - 89) =        477.8  [cm-1]   --> A               I+R
     freq ( 90 - 90) =        478.3  [cm-1]   --> A               I+R
     freq ( 91 - 91) =        478.4  [cm-1]   --> A               I+R
     freq ( 92 - 92) =        483.2  [cm-1]   --> A               I+R
     freq ( 93 - 93) =        483.2  [cm-1]   --> A               I+R
     freq ( 94 - 94) =        485.7  [cm-1]   --> A               I+R
     freq ( 95 - 95) =        485.7  [cm-1]   --> A               I+R
     freq ( 96 - 96) =        487.9  [cm-1]   --> A               I+R
     freq ( 97 - 97) =        509.0  [cm-1]   --> A               I+R
     freq ( 98 - 98) =        521.6  [cm-1]   --> A               I+R
     freq ( 99 - 99) =        521.8  [cm-1]   --> A               I+R
     freq (100 -100) =        521.8  [cm-1]   --> A               I+R
     freq (101 -101) =        523.6  [cm-1]   --> A               I+R
     freq (102 -102) =        523.6  [cm-1]   --> A               I+R
     freq (103 -103) =        525.4  [cm-1]   --> A               I+R
     freq (104 -104) =        525.4  [cm-1]   --> A               I+R
     freq (105 -105) =        539.2  [cm-1]   --> A               I+R
     freq (106 -106) =        539.2  [cm-1]   --> A               I+R
     freq (107 -107) =        541.7  [cm-1]   --> A               I+R
     freq (108 -108) =        543.6  [cm-1]   --> A               I+R
     freq (109 -109) =        543.7  [cm-1]   --> A               I+R
     freq (110 -110) =        545.1  [cm-1]   --> A               I+R
     freq (111 -111) =        546.4  [cm-1]   --> A               I+R
     freq (112 -112) =        546.4  [cm-1]   --> A               I+R
     freq (113 -113) =        552.0  [cm-1]   --> A               I+R
     freq (114 -114) =        769.3  [cm-1]   --> A               I+R
     freq (115 -115) =        769.3  [cm-1]   --> A               I+R
     freq (116 -116) =        769.5  [cm-1]   --> A               I+R
     freq (117 -117) =        816.4  [cm-1]   --> A               I+R
     freq (118 -118) =        817.9  [cm-1]   --> A               I+R
     freq (119 -119) =        817.9  [cm-1]   --> A               I+R
     freq (120 -120) =        851.0  [cm-1]   --> A               I+R

     INITIALIZATION:

     DIELECTRIC CONSTANT AND EFFECTIVE CHARGES:

     RAMAN COEFFICIENTS, THIRD-ORDER CHI:

     DYNAMICAL MATRIX:

      General routines

   This run was terminated on:  15:25:13  18Mar2019

   JOB DONE.